TYPE : Vertex Cover
DIMENSION: 24
EDGE_DATA_SECTION:
0 4
0 12
1 3
1 6
1 8
1 14
1 17
1 22
2 10
2 16
2 17
2 19
2 20
3 14
3 16
4 5
4 13
4 18
5 6
5 9
5 12
5 13
5 18
6 12
6 14
6 16
7 8
7 9
9 11
9 12
9 16
9 18
10 13
10 19
10 20
10 22
11 14
11 19
11 21
12 19
13 20
13 23
15 20
15 22
17 20
18 22
20 21
21 23
-1
VERTEX_DEGREE:
2.0 6.0 5.0 3.0 4.0 6.0 5.0 2.0 2.0 6.0 5.0 4.0 5.0 5.0 4.0 2.0 4.0 3.0 4.0 4.0 6.0 3.0 4.0 2.0
VERTEX_COVER:
1 2 4 5 7 9 10 11 12 14 16 20 22 23
EOF
